sat
(:SPACER-cex-depth                 2
 :SPACER-expand-pob-undef          1
 :SPACER-inductive-gen             1
 :SPACER-inductive-gen-weaken-fail 1
 :SPACER-max-depth                 2
 :SPACER-max-query-lvl             2
 :SPACER-num-active-lemmas         2
 :SPACER-num-is_invariant          2
 :SPACER-num-lemmas                3
 :SPACER-num-pobs                  3
 :SPACER-num-queries               3
 :SPACER-num-reach-queries         2
 :added-eqs                        124
 :arith-assert-diseq               18
 :arith-assert-lower               132
 :arith-assert-upper               94
 :arith-bound-prop                 38
 :arith-conflicts                  6
 :arith-eq-adapter                 32
 :arith-fixed-eqs                  20
 :arith-num-rows                   26
 :arith-offset-eqs                 4
 :arith-pivots                     46
 :arith-row-summations             132
 :arith-tableau-max-columns        62
 :arith-tableau-max-rows           26
 :conflicts                        20
 :decisions                        92
 :del-clause                       44
 :final-checks                     16
 :iuc_solver.num_proxies           4
 :max-memory                       30.20
 :memory                           30.20
 :mk-bool-var                      278
 :mk-clause                        272
 :num-allocs                       4271523
 :num-checks                       28
 :pool_solver.checks               14
 :pool_solver.checks.sat           7
 :pool_solver.checks.undef         1
 :propagations                     384
 :rlimit-count                     5376
 :time                             0.02
 :time.pool_solver.smt.total       0.00
 :time.pool_solver.smt.total.sat   0.00
 :time.spacer.init_rules           0.00
 :time.spacer.solve                0.01
 :time.spacer.solve.propagate      0.00
 :time.spacer.solve.reach          0.01
 :time.spacer.solve.reach.is-reach 0.00)
(:max-memory   30.20
 :memory       30.20
 :num-allocs   4271523
 :rlimit-count 5376
 :time         0.02
 :total-time   0.04)
